proyfinal/src/viki/013/andrea/andrea-localstore/experimentInOfficeAgust.take6/worker_5/49ff7b8a-c9a7-4fde-839b-de9e2c8055a2.als.cnf.out
Reading from standard input... Use '--help' for help.
============================[ Problem Statistics ]=============================
|                                                                             |
|  Number of variables:         87638                                         |
|  Number of clauses:          161767                                         |
|  Parse time:                   0.04 s                                       |
|                                                                             |
============================[ Search Statistics ]==============================
| Conflicts |          ORIGINAL         |          LEARNT          | Progress |
|           |    Vars  Clauses Literals |    Limit  Clauses Lit/Cl |          |
===============================================================================
|       100 |   63171   108005   269980 |    39601      100     37 | 27.918 % |
|       250 |   63171   108005   269980 |    43562      250     83 | 27.918 % |
|       475 |   63142   107887   269705 |    47918      474     65 | 27.951 % |
|       812 |   51278    74344   187185 |    52710      805     67 | 41.489 % |
|      1318 |   50706    72445   182479 |    57981     1293     56 | 42.142 % |
|      2077 |   50670    72273   182048 |    63779     1979     58 | 42.183 % |
|      3216 |   50592    71926   181207 |    70157     3115     57 | 42.272 % |
|      4924 |   50068    69888   176195 |    77172     4325     53 | 42.870 % |
|      7486 |   49815    68965   174052 |    84890     6862     57 | 43.158 % |
|     11330 |   49146    66083   167199 |    93379     9794     50 | 43.922 % |
===============================================================================
restarts              : 61
conflicts             : 13965          (8479 /sec)
decisions             : 47104          (0.00 % random) (28601 /sec)
propagations          : 19342942       (11744677 /sec)
conflict literals     : 638365         (45.10 % deleted)
Memory used           : 29.43 MB
CPU time              : 1.64695 s

UNSATISFIABLE
